8460
42, 2, 30, 29, 16, 46, 25, 12, 28, 26, 27, 47, 14, 13, 52, 11, 51, 33, 43, 4, 6, 5, 15, 24, 48, 38, 40, 39, 37, 36, 35, 34, 44, 50, 20, 23, 31, 18, 17, 3, 41, 8, 9, 10, 19, 45, 32, 49, 1, 22, 21, 7
